NAME: random_40_6
TYPE: TSP
COMMENT: random_40_6
DIMENSION: 40
EDGE_WEIGHT_TYPE: EUC_2D
NODE_COORD_SECTION
1 272 474
2 342 31
3 23 244
4 106 93
5 98 477
6 415 428
7 170 488
8 386 28
9 230 372
10 210 150
11 115 492
12 69 166
13 113 169
14 6 206
15 296 79
16 350 305
17 447 214
18 489 296
19 225 28
20 223 99
21 142 342
22 161 250
23 277 242
24 348 99
25 423 170
26 312 224
27 18 269
28 396 140
29 432 226
30 294 183
31 335 379
32 378 90
33 108 316
34 386 258
35 266 171
36 16 94
37 436 449
38 52 364
39 251 50
40 448 184
